(set-logic QF_NLR)
(declare-fun y1 () Real)
(declare-fun y12 () Real)
(declare-fun y23 () Real)
(declare-fun y34 () Real)
(declare-fun y41 () Real)
(assert
(and
(and (<= 2.5854 y1) (<= y1 2.6508))(and (<= 2.0 y12) (<= y12 2.46350884418))(and (<= 2.0 y23) (<= y23 2.46350884418))(and (<= 2.0 y34) (<= y34 2.46350884418))(and (<= 2.0 y41) (<= y41 2.46350884418))(not (< (+ (* 2.0 (* 3.14159265 0.128506)) (+ (* (+ (- 0.066254) (+ 0.234791 (+ (- 0.097658) (- 0.070878)))) y1) (+ (* 2.0 (* (+ 0.003287 (- 0.003287)) y12)) (+ (* 2.0 (* (+ (- 0.003287) 0.003287) y23)) (+ (* 2.0 (* (+ 0.003287 (- 0.003287)) y34)) (+ (* 2.0 (* (+ (- 0.003287) 0.003287) y41)) (+ (- 0.104563) (+ (- 0.786309) (+ 0.050047 0.033394))))))))) 0.0)))
)
(check-sat)
(exit)
